p cnf 567 1678
-9 1 0
-9 3 0
9 -1 -3 0
-10 2 0
-10 4 0
10 -2 -4 0
-11 9 0
-11 10 0
11 -9 -10 0
-12 5 0
-12 6 0
12 -5 -6 0
-13 7 0
-13 -8 0
13 -7 8 0
-14 12 0
-14 13 0
14 -12 -13 0
-15 11 0
-15 14 0
15 -11 -14 0
-16 -1 0
-16 3 0
16 1 -3 0
-17 10 0
-17 16 0
17 -10 -16 0
-18 14 0
-18 17 0
18 -14 -17 0
-19 -2 0
-19 4 0
19 2 -4 0
-20 9 0
-20 19 0
20 -9 -19 0
-21 14 0
-21 20 0
21 -14 -20 0
-22 16 0
-22 19 0
22 -16 -19 0
-23 14 0
-23 22 0
23 -14 -22 0
-24 1 0
-24 -3 0
24 -1 3 0
-25 10 0
-25 24 0
25 -10 -24 0
-26 14 0
-26 25 0
26 -14 -25 0
-27 -1 0
-27 -3 0
27 1 3 0
-28 10 0
-28 27 0
28 -10 -27 0
-29 14 0
-29 28 0
29 -14 -28 0
-30 19 0
-30 24 0
30 -19 -24 0
-31 14 0
-31 30 0
31 -14 -30 0
-32 19 0
-32 27 0
32 -19 -27 0
-33 14 0
-33 32 0
33 -14 -32 0
-34 2 0
-34 -4 0
34 -2 4 0
-35 9 0
-35 34 0
35 -9 -34 0
-36 14 0
-36 35 0
36 -14 -35 0
-37 16 0
-37 34 0
37 -16 -34 0
-38 14 0
-38 37 0
38 -14 -37 0
-39 -2 0
-39 -4 0
39 2 4 0
-40 9 0
-40 39 0
40 -9 -39 0
-41 14 0
-41 40 0
41 -14 -40 0
-42 16 0
-42 39 0
42 -16 -39 0
-43 14 0
-43 42 0
43 -14 -42 0
-44 24 0
-44 34 0
44 -24 -34 0
-45 14 0
-45 44 0
45 -14 -44 0
-46 27 0
-46 34 0
46 -27 -34 0
-47 14 0
-47 46 0
47 -14 -46 0
-48 24 0
-48 39 0
48 -24 -39 0
-49 14 0
-49 48 0
49 -14 -48 0
-50 27 0
-50 39 0
50 -27 -39 0
-51 14 0
-51 50 0
51 -14 -50 0
-52 -5 0
-52 6 0
52 5 -6 0
-53 13 0
-53 52 0
53 -13 -52 0
-54 11 0
-54 53 0
54 -11 -53 0
-55 17 0
-55 53 0
55 -17 -53 0
-56 20 0
-56 53 0
56 -20 -53 0
-57 22 0
-57 53 0
57 -22 -53 0
-58 25 0
-58 53 0
58 -25 -53 0
-59 28 0
-59 53 0
59 -28 -53 0
-60 30 0
-60 53 0
60 -30 -53 0
-61 32 0
-61 53 0
61 -32 -53 0
-62 35 0
-62 53 0
62 -35 -53 0
-63 37 0
-63 53 0
63 -37 -53 0
-64 40 0
-64 53 0
64 -40 -53 0
-65 42 0
-65 53 0
65 -42 -53 0
-66 44 0
-66 53 0
66 -44 -53 0
-67 46 0
-67 53 0
67 -46 -53 0
-68 48 0
-68 53 0
68 -48 -53 0
-69 50 0
-69 53 0
69 -50 -53 0
-70 5 0
-70 -6 0
70 -5 6 0
-71 13 0
-71 70 0
71 -13 -70 0
-72 11 0
-72 71 0
72 -11 -71 0
-73 17 0
-73 71 0
73 -17 -71 0
-74 20 0
-74 71 0
74 -20 -71 0
-75 22 0
-75 71 0
75 -22 -71 0
-76 25 0
-76 71 0
76 -25 -71 0
-77 28 0
-77 71 0
77 -28 -71 0
-78 30 0
-78 71 0
78 -30 -71 0
-79 32 0
-79 71 0
79 -32 -71 0
-80 35 0
-80 71 0
80 -35 -71 0
-81 37 0
-81 71 0
81 -37 -71 0
-82 40 0
-82 71 0
82 -40 -71 0
-83 42 0
-83 71 0
83 -42 -71 0
-84 44 0
-84 71 0
84 -44 -71 0
-85 46 0
-85 71 0
85 -46 -71 0
-86 48 0
-86 71 0
86 -48 -71 0
-87 50 0
-87 71 0
87 -50 -71 0
-88 -5 0
-88 -6 0
88 5 6 0
-89 13 0
-89 88 0
89 -13 -88 0
-90 11 0
-90 89 0
90 -11 -89 0
-91 17 0
-91 89 0
91 -17 -89 0
-92 20 0
-92 89 0
92 -20 -89 0
-93 22 0
-93 89 0
93 -22 -89 0
-94 25 0
-94 89 0
94 -25 -89 0
-95 28 0
-95 89 0
95 -28 -89 0
-96 30 0
-96 89 0
96 -30 -89 0
-97 32 0
-97 89 0
97 -32 -89 0
-98 35 0
-98 89 0
98 -35 -89 0
-99 37 0
-99 89 0
99 -37 -89 0
-100 40 0
-100 89 0
100 -40 -89 0
-101 42 0
-101 89 0
101 -42 -89 0
-102 44 0
-102 89 0
102 -44 -89 0
-103 46 0
-103 89 0
103 -46 -89 0
-104 48 0
-104 89 0
104 -48 -89 0
-105 50 0
-105 89 0
105 -50 -89 0
-106 -7 0
-106 -8 0
106 7 8 0
-107 12 0
-107 106 0
107 -12 -106 0
-108 11 0
-108 107 0
108 -11 -107 0
-109 17 0
-109 107 0
109 -17 -107 0
-110 20 0
-110 107 0
110 -20 -107 0
-111 22 0
-111 107 0
111 -22 -107 0
-112 25 0
-112 107 0
112 -25 -107 0
-113 28 0
-113 107 0
113 -28 -107 0
-114 30 0
-114 107 0
114 -30 -107 0
-115 32 0
-115 107 0
115 -32 -107 0
-116 35 0
-116 107 0
116 -35 -107 0
-117 37 0
-117 107 0
117 -37 -107 0
-118 40 0
-118 107 0
118 -40 -107 0
-119 42 0
-119 107 0
119 -42 -107 0
-120 44 0
-120 107 0
120 -44 -107 0
-121 46 0
-121 107 0
121 -46 -107 0
-122 48 0
-122 107 0
122 -48 -107 0
-123 50 0
-123 107 0
123 -50 -107 0
-124 52 0
-124 106 0
124 -52 -106 0
-125 11 0
-125 124 0
125 -11 -124 0
-126 17 0
-126 124 0
126 -17 -124 0
-127 20 0
-127 124 0
127 -20 -124 0
-128 22 0
-128 124 0
128 -22 -124 0
-129 25 0
-129 124 0
129 -25 -124 0
-130 28 0
-130 124 0
130 -28 -124 0
-131 30 0
-131 124 0
131 -30 -124 0
-132 32 0
-132 124 0
132 -32 -124 0
-133 35 0
-133 124 0
133 -35 -124 0
-134 37 0
-134 124 0
134 -37 -124 0
-135 40 0
-135 124 0
135 -40 -124 0
-136 42 0
-136 124 0
136 -42 -124 0
-137 44 0
-137 124 0
137 -44 -124 0
-138 46 0
-138 124 0
138 -46 -124 0
-139 48 0
-139 124 0
139 -48 -124 0
-140 50 0
-140 124 0
140 -50 -124 0
-141 70 0
-141 106 0
141 -70 -106 0
-142 11 0
-142 141 0
142 -11 -141 0
-143 17 0
-143 141 0
143 -17 -141 0
-144 20 0
-144 141 0
144 -20 -141 0
-145 22 0
-145 141 0
145 -22 -141 0
-146 25 0
-146 141 0
146 -25 -141 0
-147 28 0
-147 141 0
147 -28 -141 0
-148 30 0
-148 141 0
148 -30 -141 0
-149 32 0
-149 141 0
149 -32 -141 0
-150 35 0
-150 141 0
150 -35 -141 0
-151 37 0
-151 141 0
151 -37 -141 0
-152 40 0
-152 141 0
152 -40 -141 0
-153 42 0
-153 141 0
153 -42 -141 0
-154 44 0
-154 141 0
154 -44 -141 0
-155 46 0
-155 141 0
155 -46 -141 0
-156 48 0
-156 141 0
156 -48 -141 0
-157 50 0
-157 141 0
157 -50 -141 0
-158 88 0
-158 106 0
158 -88 -106 0
-159 11 0
-159 158 0
159 -11 -158 0
-160 17 0
-160 158 0
160 -17 -158 0
-161 20 0
-161 158 0
161 -20 -158 0
-162 22 0
-162 158 0
162 -22 -158 0
-163 25 0
-163 158 0
163 -25 -158 0
-164 28 0
-164 158 0
164 -28 -158 0
-165 30 0
-165 158 0
165 -30 -158 0
-166 32 0
-166 158 0
166 -32 -158 0
-167 35 0
-167 158 0
167 -35 -158 0
-168 37 0
-168 158 0
168 -37 -158 0
-169 40 0
-169 158 0
169 -40 -158 0
-170 42 0
-170 158 0
170 -42 -158 0
-171 44 0
-171 158 0
171 -44 -158 0
-172 46 0
-172 158 0
172 -46 -158 0
-173 48 0
-173 158 0
173 -48 -158 0
-174 50 0
-174 158 0
174 -50 -158 0
-175 7 0
-175 8 0
175 -7 -8 0
-176 12 0
-176 175 0
176 -12 -175 0
-177 11 0
-177 176 0
177 -11 -176 0
-178 17 0
-178 176 0
178 -17 -176 0
-179 20 0
-179 176 0
179 -20 -176 0
-180 22 0
-180 176 0
180 -22 -176 0
-181 25 0
-181 176 0
181 -25 -176 0
-182 28 0
-182 176 0
182 -28 -176 0
-183 30 0
-183 176 0
183 -30 -176 0
-184 32 0
-184 176 0
184 -32 -176 0
-185 35 0
-185 176 0
185 -35 -176 0
-186 37 0
-186 176 0
186 -37 -176 0
-187 40 0
-187 176 0
187 -40 -176 0
-188 42 0
-188 176 0
188 -42 -176 0
-189 44 0
-189 176 0
189 -44 -176 0
-190 46 0
-190 176 0
190 -46 -176 0
-191 48 0
-191 176 0
191 -48 -176 0
-192 50 0
-192 176 0
192 -50 -176 0
-193 52 0
-193 175 0
193 -52 -175 0
-194 11 0
-194 193 0
194 -11 -193 0
-195 17 0
-195 193 0
195 -17 -193 0
-196 20 0
-196 193 0
196 -20 -193 0
-197 22 0
-197 193 0
197 -22 -193 0
-198 25 0
-198 193 0
198 -25 -193 0
-199 28 0
-199 193 0
199 -28 -193 0
-200 30 0
-200 193 0
200 -30 -193 0
-201 32 0
-201 193 0
201 -32 -193 0
-202 35 0
-202 193 0
202 -35 -193 0
-203 37 0
-203 193 0
203 -37 -193 0
-204 40 0
-204 193 0
204 -40 -193 0
-205 42 0
-205 193 0
205 -42 -193 0
-206 44 0
-206 193 0
206 -44 -193 0
-207 46 0
-207 193 0
207 -46 -193 0
-208 48 0
-208 193 0
208 -48 -193 0
-209 50 0
-209 193 0
209 -50 -193 0
-210 70 0
-210 175 0
210 -70 -175 0
-211 11 0
-211 210 0
211 -11 -210 0
-212 17 0
-212 210 0
212 -17 -210 0
-213 20 0
-213 210 0
213 -20 -210 0
-214 22 0
-214 210 0
214 -22 -210 0
-215 25 0
-215 210 0
215 -25 -210 0
-216 28 0
-216 210 0
216 -28 -210 0
-217 30 0
-217 210 0
217 -30 -210 0
-218 32 0
-218 210 0
218 -32 -210 0
-219 35 0
-219 210 0
219 -35 -210 0
-220 37 0
-220 210 0
220 -37 -210 0
-221 40 0
-221 210 0
221 -40 -210 0
-222 42 0
-222 210 0
222 -42 -210 0
-223 44 0
-223 210 0
223 -44 -210 0
-224 46 0
-224 210 0
224 -46 -210 0
-225 48 0
-225 210 0
225 -48 -210 0
-226 50 0
-226 210 0
226 -50 -210 0
-227 88 0
-227 175 0
227 -88 -175 0
-228 11 0
-228 227 0
228 -11 -227 0
-229 17 0
-229 227 0
229 -17 -227 0
-230 20 0
-230 227 0
230 -20 -227 0
-231 22 0
-231 227 0
231 -22 -227 0
-232 25 0
-232 227 0
232 -25 -227 0
-233 28 0
-233 227 0
233 -28 -227 0
-234 30 0
-234 227 0
234 -30 -227 0
-235 32 0
-235 227 0
235 -32 -227 0
-236 35 0
-236 227 0
236 -35 -227 0
-237 37 0
-237 227 0
237 -37 -227 0
-238 40 0
-238 227 0
238 -40 -227 0
-239 42 0
-239 227 0
239 -42 -227 0
-240 44 0
-240 227 0
240 -44 -227 0
-241 46 0
-241 227 0
241 -46 -227 0
-242 48 0
-242 227 0
242 -48 -227 0
-243 50 0
-243 227 0
243 -50 -227 0
-244 -7 0
-244 8 0
244 7 -8 0
-245 12 0
-245 244 0
245 -12 -244 0
-246 11 0
-246 245 0
246 -11 -245 0
-247 17 0
-247 245 0
247 -17 -245 0
-248 20 0
-248 245 0
248 -20 -245 0
-249 22 0
-249 245 0
249 -22 -245 0
-250 25 0
-250 245 0
250 -25 -245 0
-251 28 0
-251 245 0
251 -28 -245 0
-252 30 0
-252 245 0
252 -30 -245 0
-253 32 0
-253 245 0
253 -32 -245 0
-254 35 0
-254 245 0
254 -35 -245 0
-255 37 0
-255 245 0
255 -37 -245 0
-256 40 0
-256 245 0
256 -40 -245 0
-257 42 0
-257 245 0
257 -42 -245 0
-258 44 0
-258 245 0
258 -44 -245 0
-259 46 0
-259 245 0
259 -46 -245 0
-260 48 0
-260 245 0
260 -48 -245 0
-261 50 0
-261 245 0
261 -50 -245 0
-262 52 0
-262 244 0
262 -52 -244 0
-263 11 0
-263 262 0
263 -11 -262 0
-264 17 0
-264 262 0
264 -17 -262 0
-265 20 0
-265 262 0
265 -20 -262 0
-266 22 0
-266 262 0
266 -22 -262 0
-267 25 0
-267 262 0
267 -25 -262 0
-268 28 0
-268 262 0
268 -28 -262 0
-269 30 0
-269 262 0
269 -30 -262 0
-270 32 0
-270 262 0
270 -32 -262 0
-271 35 0
-271 262 0
271 -35 -262 0
-272 37 0
-272 262 0
272 -37 -262 0
-273 40 0
-273 262 0
273 -40 -262 0
-274 42 0
-274 262 0
274 -42 -262 0
-275 44 0
-275 262 0
275 -44 -262 0
-276 46 0
-276 262 0
276 -46 -262 0
-277 48 0
-277 262 0
277 -48 -262 0
-278 50 0
-278 262 0
278 -50 -262 0
-279 70 0
-279 244 0
279 -70 -244 0
-280 11 0
-280 279 0
280 -11 -279 0
-281 17 0
-281 279 0
281 -17 -279 0
-282 20 0
-282 279 0
282 -20 -279 0
-283 22 0
-283 279 0
283 -22 -279 0
-284 25 0
-284 279 0
284 -25 -279 0
-285 28 0
-285 279 0
285 -28 -279 0
-286 30 0
-286 279 0
286 -30 -279 0
-287 32 0
-287 279 0
287 -32 -279 0
-288 35 0
-288 279 0
288 -35 -279 0
-289 37 0
-289 279 0
289 -37 -279 0
-290 40 0
-290 279 0
290 -40 -279 0
-291 42 0
-291 279 0
291 -42 -279 0
-292 44 0
-292 279 0
292 -44 -279 0
-293 46 0
-293 279 0
293 -46 -279 0
-294 48 0
-294 279 0
294 -48 -279 0
-295 50 0
-295 279 0
295 -50 -279 0
-296 88 0
-296 244 0
296 -88 -244 0
-297 11 0
-297 296 0
297 -11 -296 0
-298 17 0
-298 296 0
298 -17 -296 0
-299 20 0
-299 296 0
299 -20 -296 0
-300 22 0
-300 296 0
300 -22 -296 0
-301 25 0
-301 296 0
301 -25 -296 0
-302 28 0
-302 296 0
302 -28 -296 0
-303 30 0
-303 296 0
303 -30 -296 0
-304 32 0
-304 296 0
304 -32 -296 0
-305 35 0
-305 296 0
305 -35 -296 0
-306 37 0
-306 296 0
306 -37 -296 0
-307 40 0
-307 296 0
307 -40 -296 0
-308 42 0
-308 296 0
308 -42 -296 0
-309 44 0
-309 296 0
309 -44 -296 0
-310 46 0
-310 296 0
310 -46 -296 0
-311 50 0
-311 296 0
311 -50 -296 0
-312 48 0
-312 296 0
312 -48 -296 0
-313 -311 0
-313 -312 0
313 311 312 0
-314 -310 0
-314 313 0
314 310 -313 0
-315 -309 0
-315 314 0
315 309 -314 0
-316 -308 0
-316 315 0
316 308 -315 0
-317 -307 0
-317 316 0
317 307 -316 0
-318 -306 0
-318 317 0
318 306 -317 0
-319 -305 0
-319 318 0
319 305 -318 0
-320 -304 0
-320 319 0
320 304 -319 0
-321 -303 0
-321 320 0
321 303 -320 0
-322 -302 0
-322 321 0
322 302 -321 0
-323 -301 0
-323 322 0
323 301 -322 0
-324 -300 0
-324 323 0
324 300 -323 0
-325 -299 0
-325 324 0
325 299 -324 0
-326 -298 0
-326 325 0
326 298 -325 0
-327 -297 0
-327 326 0
327 297 -326 0
-328 -295 0
-328 327 0
328 295 -327 0
-329 -294 0
-329 328 0
329 294 -328 0
-330 -293 0
-330 329 0
330 293 -329 0
-331 -292 0
-331 330 0
331 292 -330 0
-332 -291 0
-332 331 0
332 291 -331 0
-333 -290 0
-333 332 0
333 290 -332 0
-334 -289 0
-334 333 0
334 289 -333 0
-335 -288 0
-335 334 0
335 288 -334 0
-336 -287 0
-336 335 0
336 287 -335 0
-337 -286 0
-337 336 0
337 286 -336 0
-338 -285 0
-338 337 0
338 285 -337 0
-339 -284 0
-339 338 0
339 284 -338 0
-340 -283 0
-340 339 0
340 283 -339 0
-341 -282 0
-341 340 0
341 282 -340 0
-342 -281 0
-342 341 0
342 281 -341 0
-343 -280 0
-343 342 0
343 280 -342 0
-344 -278 0
-344 343 0
344 278 -343 0
-345 -277 0
-345 344 0
345 277 -344 0
-346 -276 0
-346 345 0
346 276 -345 0
-347 -275 0
-347 346 0
347 275 -346 0
-348 -274 0
-348 347 0
348 274 -347 0
-349 -273 0
-349 348 0
349 273 -348 0
-350 -272 0
-350 349 0
350 272 -349 0
-351 -271 0
-351 350 0
351 271 -350 0
-352 -270 0
-352 351 0
352 270 -351 0
-353 -269 0
-353 352 0
353 269 -352 0
-354 -268 0
-354 353 0
354 268 -353 0
-355 -267 0
-355 354 0
355 267 -354 0
-356 -266 0
-356 355 0
356 266 -355 0
-357 -265 0
-357 356 0
357 265 -356 0
-358 -264 0
-358 357 0
358 264 -357 0
-359 -263 0
-359 358 0
359 263 -358 0
-360 -261 0
-360 359 0
360 261 -359 0
-361 -260 0
-361 360 0
361 260 -360 0
-362 -259 0
-362 361 0
362 259 -361 0
-363 -258 0
-363 362 0
363 258 -362 0
-364 -257 0
-364 363 0
364 257 -363 0
-365 -256 0
-365 364 0
365 256 -364 0
-366 -255 0
-366 365 0
366 255 -365 0
-367 -254 0
-367 366 0
367 254 -366 0
-368 -253 0
-368 367 0
368 253 -367 0
-369 -252 0
-369 368 0
369 252 -368 0
-370 -251 0
-370 369 0
370 251 -369 0
-371 -250 0
-371 370 0
371 250 -370 0
-372 -249 0
-372 371 0
372 249 -371 0
-373 -248 0
-373 372 0
373 248 -372 0
-374 -247 0
-374 373 0
374 247 -373 0
-375 -246 0
-375 374 0
375 246 -374 0
-376 -243 0
-376 375 0
376 243 -375 0
-377 -242 0
-377 376 0
377 242 -376 0
-378 -241 0
-378 377 0
378 241 -377 0
-379 -240 0
-379 378 0
379 240 -378 0
-380 -239 0
-380 379 0
380 239 -379 0
-381 -238 0
-381 380 0
381 238 -380 0
-382 -237 0
-382 381 0
382 237 -381 0
-383 -236 0
-383 382 0
383 236 -382 0
-384 -235 0
-384 383 0
384 235 -383 0
-385 -234 0
-385 384 0
385 234 -384 0
-386 -233 0
-386 385 0
386 233 -385 0
-387 -232 0
-387 386 0
387 232 -386 0
-388 -231 0
-388 387 0
388 231 -387 0
-389 -230 0
-389 388 0
389 230 -388 0
-390 -229 0
-390 389 0
390 229 -389 0
-391 -228 0
-391 390 0
391 228 -390 0
-392 -226 0
-392 391 0
392 226 -391 0
-393 -225 0
-393 392 0
393 225 -392 0
-394 -224 0
-394 393 0
394 224 -393 0
-395 -223 0
-395 394 0
395 223 -394 0
-396 -222 0
-396 395 0
396 222 -395 0
-397 -221 0
-397 396 0
397 221 -396 0
-398 -220 0
-398 397 0
398 220 -397 0
-399 -219 0
-399 398 0
399 219 -398 0
-400 -218 0
-400 399 0
400 218 -399 0
-401 -217 0
-401 400 0
401 217 -400 0
-402 -216 0
-402 401 0
402 216 -401 0
-403 -215 0
-403 402 0
403 215 -402 0
-404 -214 0
-404 403 0
404 214 -403 0
-405 -213 0
-405 404 0
405 213 -404 0
-406 -212 0
-406 405 0
406 212 -405 0
-407 -211 0
-407 406 0
407 211 -406 0
-408 -209 0
-408 407 0
408 209 -407 0
-409 -208 0
-409 408 0
409 208 -408 0
-410 -207 0
-410 409 0
410 207 -409 0
-411 -206 0
-411 410 0
411 206 -410 0
-412 -205 0
-412 411 0
412 205 -411 0
-413 -204 0
-413 412 0
413 204 -412 0
-414 -203 0
-414 413 0
414 203 -413 0
-415 -202 0
-415 414 0
415 202 -414 0
-416 -201 0
-416 415 0
416 201 -415 0
-417 -200 0
-417 416 0
417 200 -416 0
-418 -199 0
-418 417 0
418 199 -417 0
-419 -198 0
-419 418 0
419 198 -418 0
-420 -197 0
-420 419 0
420 197 -419 0
-421 -196 0
-421 420 0
421 196 -420 0
-422 -195 0
-422 421 0
422 195 -421 0
-423 -194 0
-423 422 0
423 194 -422 0
-424 -192 0
-424 423 0
424 192 -423 0
-425 -191 0
-425 424 0
425 191 -424 0
-426 -190 0
-426 425 0
426 190 -425 0
-427 -189 0
-427 426 0
427 189 -426 0
-428 -188 0
-428 427 0
428 188 -427 0
-429 -187 0
-429 428 0
429 187 -428 0
-430 -186 0
-430 429 0
430 186 -429 0
-431 -185 0
-431 430 0
431 185 -430 0
-432 -184 0
-432 431 0
432 184 -431 0
-433 -183 0
-433 432 0
433 183 -432 0
-434 -182 0
-434 433 0
434 182 -433 0
-435 -181 0
-435 434 0
435 181 -434 0
-436 -180 0
-436 435 0
436 180 -435 0
-437 -179 0
-437 436 0
437 179 -436 0
-438 -178 0
-438 437 0
438 178 -437 0
-439 -177 0
-439 438 0
439 177 -438 0
-440 -174 0
-440 439 0
440 174 -439 0
-441 -173 0
-441 440 0
441 173 -440 0
-442 -172 0
-442 441 0
442 172 -441 0
-443 -171 0
-443 442 0
443 171 -442 0
-444 -170 0
-444 443 0
444 170 -443 0
-445 -169 0
-445 444 0
445 169 -444 0
-446 -168 0
-446 445 0
446 168 -445 0
-447 -167 0
-447 446 0
447 167 -446 0
-448 -166 0
-448 447 0
448 166 -447 0
-449 -165 0
-449 448 0
449 165 -448 0
-450 -164 0
-450 449 0
450 164 -449 0
-451 -163 0
-451 450 0
451 163 -450 0
-452 -162 0
-452 451 0
452 162 -451 0
-453 -161 0
-453 452 0
453 161 -452 0
-454 -160 0
-454 453 0
454 160 -453 0
-455 -159 0
-455 454 0
455 159 -454 0
-456 -157 0
-456 455 0
456 157 -455 0
-457 -156 0
-457 456 0
457 156 -456 0
-458 -155 0
-458 457 0
458 155 -457 0
-459 -154 0
-459 458 0
459 154 -458 0
-460 -153 0
-460 459 0
460 153 -459 0
-461 -152 0
-461 460 0
461 152 -460 0
-462 -151 0
-462 461 0
462 151 -461 0
-463 -150 0
-463 462 0
463 150 -462 0
-464 -149 0
-464 463 0
464 149 -463 0
-465 -148 0
-465 464 0
465 148 -464 0
-466 -147 0
-466 465 0
466 147 -465 0
-467 -146 0
-467 466 0
467 146 -466 0
-468 -145 0
-468 467 0
468 145 -467 0
-469 -144 0
-469 468 0
469 144 -468 0
-470 -143 0
-470 469 0
470 143 -469 0
-471 -142 0
-471 470 0
471 142 -470 0
-472 -140 0
-472 471 0
472 140 -471 0
-473 -139 0
-473 472 0
473 139 -472 0
-474 -138 0
-474 473 0
474 138 -473 0
-475 -137 0
-475 474 0
475 137 -474 0
-476 -136 0
-476 475 0
476 136 -475 0
-477 -135 0
-477 476 0
477 135 -476 0
-478 -134 0
-478 477 0
478 134 -477 0
-479 -133 0
-479 478 0
479 133 -478 0
-480 -132 0
-480 479 0
480 132 -479 0
-481 -131 0
-481 480 0
481 131 -480 0
-482 -130 0
-482 481 0
482 130 -481 0
-483 -129 0
-483 482 0
483 129 -482 0
-484 -128 0
-484 483 0
484 128 -483 0
-485 -127 0
-485 484 0
485 127 -484 0
-486 -126 0
-486 485 0
486 126 -485 0
-487 -125 0
-487 486 0
487 125 -486 0
-488 -123 0
-488 487 0
488 123 -487 0
-489 -122 0
-489 488 0
489 122 -488 0
-490 -121 0
-490 489 0
490 121 -489 0
-491 -120 0
-491 490 0
491 120 -490 0
-492 -119 0
-492 491 0
492 119 -491 0
-493 -118 0
-493 492 0
493 118 -492 0
-494 -117 0
-494 493 0
494 117 -493 0
-495 -116 0
-495 494 0
495 116 -494 0
-496 -115 0
-496 495 0
496 115 -495 0
-497 -114 0
-497 496 0
497 114 -496 0
-498 -113 0
-498 497 0
498 113 -497 0
-499 -112 0
-499 498 0
499 112 -498 0
-500 -111 0
-500 499 0
500 111 -499 0
-501 -110 0
-501 500 0
501 110 -500 0
-502 -109 0
-502 501 0
502 109 -501 0
-503 -108 0
-503 502 0
503 108 -502 0
-504 -105 0
-504 503 0
504 105 -503 0
-505 -104 0
-505 504 0
505 104 -504 0
-506 -103 0
-506 505 0
506 103 -505 0
-507 -102 0
-507 506 0
507 102 -506 0
-508 -101 0
-508 507 0
508 101 -507 0
-509 -100 0
-509 508 0
509 100 -508 0
-510 -99 0
-510 509 0
510 99 -509 0
-511 -98 0
-511 510 0
511 98 -510 0
-512 -97 0
-512 511 0
512 97 -511 0
-513 -96 0
-513 512 0
513 96 -512 0
-514 -95 0
-514 513 0
514 95 -513 0
-515 -94 0
-515 514 0
515 94 -514 0
-516 -93 0
-516 515 0
516 93 -515 0
-517 -92 0
-517 516 0
517 92 -516 0
-518 -91 0
-518 517 0
518 91 -517 0
-519 -90 0
-519 518 0
519 90 -518 0
-520 -87 0
-520 519 0
520 87 -519 0
-521 -86 0
-521 520 0
521 86 -520 0
-522 -85 0
-522 521 0
522 85 -521 0
-523 -84 0
-523 522 0
523 84 -522 0
-524 -83 0
-524 523 0
524 83 -523 0
-525 -82 0
-525 524 0
525 82 -524 0
-526 -81 0
-526 525 0
526 81 -525 0
-527 -80 0
-527 526 0
527 80 -526 0
-528 -79 0
-528 527 0
528 79 -527 0
-529 -78 0
-529 528 0
529 78 -528 0
-530 -77 0
-530 529 0
530 77 -529 0
-531 -76 0
-531 530 0
531 76 -530 0
-532 -75 0
-532 531 0
532 75 -531 0
-533 -74 0
-533 532 0
533 74 -532 0
-534 -73 0
-534 533 0
534 73 -533 0
-535 -72 0
-535 534 0
535 72 -534 0
-536 -69 0
-536 535 0
536 69 -535 0
-537 -68 0
-537 536 0
537 68 -536 0
-538 -67 0
-538 537 0
538 67 -537 0
-539 -66 0
-539 538 0
539 66 -538 0
-540 -65 0
-540 539 0
540 65 -539 0
-541 -64 0
-541 540 0
541 64 -540 0
-542 -63 0
-542 541 0
542 63 -541 0
-543 -62 0
-543 542 0
543 62 -542 0
-544 -61 0
-544 543 0
544 61 -543 0
-545 -60 0
-545 544 0
545 60 -544 0
-546 -59 0
-546 545 0
546 59 -545 0
-547 -58 0
-547 546 0
547 58 -546 0
-548 -57 0
-548 547 0
548 57 -547 0
-549 -56 0
-549 548 0
549 56 -548 0
-550 -55 0
-550 549 0
550 55 -549 0
-551 -54 0
-551 550 0
551 54 -550 0
-552 -51 0
-552 551 0
552 51 -551 0
-553 -49 0
-553 552 0
553 49 -552 0
-554 -47 0
-554 553 0
554 47 -553 0
-555 -45 0
-555 554 0
555 45 -554 0
-556 -43 0
-556 555 0
556 43 -555 0
-557 -41 0
-557 556 0
557 41 -556 0
-558 -38 0
-558 557 0
558 38 -557 0
-559 -36 0
-559 558 0
559 36 -558 0
-560 -33 0
-560 559 0
560 33 -559 0
-561 -31 0
-561 560 0
561 31 -560 0
-562 -29 0
-562 561 0
562 29 -561 0
-563 -26 0
-563 562 0
563 26 -562 0
-564 -23 0
-564 563 0
564 23 -563 0
-565 -21 0
-565 564 0
565 21 -564 0
-566 -18 0
-566 565 0
566 18 -565 0
-567 -15 0
-567 566 0
567 15 -566 0
-567 0
